c This file is generated by v2cnfMtr
c Generated on Thu Feb 25 15:59:53 2016
p cnf 872 2325
1 76 0
-1 -76 0
2 77 0
-2 -77 0
4 78 0
-4 -78 0
6 79 0
-6 -79 0
8 80 0
-8 -80 0
10 81 0
-10 -81 0
12 82 0
-12 -82 0
14 83 0
-14 -83 0
16 84 0
-16 -84 0
18 85 0
-18 -85 0
20 86 0
-20 -86 0
22 87 0
-22 -87 0
24 88 0
-24 -88 0
26 89 0
-26 -89 0
28 90 0
-28 -90 0
30 91 0
-30 -91 0
32 92 0
-32 -92 0
34 93 0
-34 -93 0
-76 -2 -94 0
76 94 0
2 94 0
3 77 95 0
-3 -95 0
-77 -95 0
5 77 96 0
-5 -96 0
-77 -96 0
-78 -6 -97 0
78 97 0
6 97 0
-80 -10 -98 0
80 98 0
10 98 0
-82 -14 -99 0
82 99 0
14 99 0
-84 -18 -100 0
84 100 0
18 100 0
-86 -22 -101 0
86 101 0
22 101 0
-88 -26 -102 0
88 102 0
26 102 0
-90 -30 -103 0
90 103 0
30 103 0
-92 -34 -104 0
92 104 0
34 104 0
7 79 105 0
-7 -105 0
-79 -105 0
9 79 106 0
-9 -106 0
-79 -106 0
11 81 107 0
-11 -107 0
-81 -107 0
13 81 108 0
-13 -108 0
-81 -108 0
15 83 109 0
-15 -109 0
-83 -109 0
17 83 110 0
-17 -110 0
-83 -110 0
19 85 111 0
-19 -111 0
-85 -111 0
21 85 112 0
-21 -112 0
-85 -112 0
23 87 113 0
-23 -113 0
-87 -113 0
25 87 114 0
-25 -114 0
-87 -114 0
27 89 115 0
-27 -115 0
-89 -115 0
31 91 117 0
-31 -117 0
-91 -117 0
33 91 118 0
-33 -118 0
-91 -118 0
35 93 119 0
-35 -119 0
-93 -119 0
36 93 120 0
-36 -120 0
-93 -120 0
-94 -97 -98 -99 -100 -101 -102 -103 -104 121 0
94 -121 0
97 -121 0
98 -121 0
99 -121 0
100 -121 0
101 -121 0
102 -121 0
103 -121 0
104 -121 0
121 122 0
-121 -122 0
121 123 0
-121 -123 0
121 69 0
-121 -69 0
-122 -94 -124 0
122 94 -124 0
122 -94 124 0
-122 94 124 0
-122 -97 -125 0
122 97 -125 0
122 -97 125 0
-122 97 125 0
-122 -98 -126 0
122 98 -126 0
122 -98 126 0
-122 98 126 0
-122 -99 -127 0
122 99 -127 0
122 -99 127 0
-122 99 127 0
-122 -100 -128 0
122 100 -128 0
122 -100 128 0
-122 100 128 0
-122 -101 -129 0
122 101 -129 0
122 -101 129 0
-122 101 129 0
-1 -123 -130 0
1 130 0
123 130 0
-122 -102 -131 0
122 102 -131 0
122 -102 131 0
-122 102 131 0
-123 -4 -132 0
123 132 0
4 132 0
-122 -103 -133 0
122 103 -133 0
122 -103 133 0
-122 103 133 0
-123 -8 -134 0
123 134 0
8 134 0
-122 -104 -135 0
122 104 -135 0
122 -104 135 0
-122 104 135 0
-123 -12 -136 0
123 136 0
12 136 0
-123 -16 -137 0
123 137 0
16 137 0
-123 -20 -138 0
123 138 0
20 138 0
-123 -24 -139 0
123 139 0
24 139 0
-123 -28 -140 0
123 140 0
28 140 0
-123 -32 -141 0
123 141 0
32 141 0
-124 -95 -142 0
124 142 0
95 142 0
-124 -96 -143 0
124 143 0
96 143 0
-125 -105 -144 0
125 144 0
105 144 0
-126 -107 -145 0
126 145 0
107 145 0
-127 -109 -146 0
127 146 0
109 146 0
-128 -111 -147 0
128 147 0
111 147 0
-129 -113 -148 0
129 148 0
113 148 0
-131 -115 -149 0
131 149 0
115 149 0
-133 -117 -150 0
133 150 0
117 150 0
-135 -119 -151 0
135 151 0
119 151 0
-125 -106 -152 0
125 152 0
106 152 0
-126 -108 -153 0
126 153 0
108 153 0
-128 -112 -155 0
128 155 0
112 155 0
-129 -114 -156 0
129 156 0
114 156 0
-131 -116 -157 0
131 157 0
116 157 0
-133 -118 -158 0
133 158 0
118 158 0
-135 -120 -159 0
135 159 0
120 159 0
-142 -144 -145 -146 -147 -148 -149 -150 -151 160 0
142 -160 0
144 -160 0
145 -160 0
146 -160 0
147 -160 0
148 -160 0
149 -160 0
150 -160 0
151 -160 0
143 161 0
-143 -161 0
152 162 0
-152 -162 0
153 163 0
-153 -163 0
154 164 0
-154 -164 0
155 165 0
-155 -165 0
156 166 0
-156 -166 0
157 167 0
-157 -167 0
158 168 0
-158 -168 0
159 169 0
-159 -169 0
160 170 0
-160 -170 0
160 171 0
-160 -171 0
160 70 0
-160 -70 0
-170 -142 -172 0
170 142 -172 0
170 -142 172 0
-170 142 172 0
-170 -144 -173 0
170 144 -173 0
170 -144 173 0
-170 144 173 0
-170 -145 -174 0
170 145 -174 0
170 -145 174 0
-170 145 174 0
-170 -146 -175 0
170 146 -175 0
170 -146 175 0
-170 146 175 0
-3 -171 -176 0
3 176 0
171 176 0
-170 -147 -177 0
170 147 -177 0
170 -147 177 0
-170 147 177 0
-171 -7 -178 0
171 178 0
7 178 0
-170 -148 -179 0
170 148 -179 0
170 -148 179 0
-170 148 179 0
-171 -11 -180 0
171 180 0
11 180 0
-170 -149 -181 0
170 149 -181 0
170 -149 181 0
-170 149 181 0
-171 -15 -182 0
171 182 0
15 182 0
-170 -150 -183 0
170 150 -183 0
170 -150 183 0
-170 150 183 0
-171 -19 -184 0
171 184 0
19 184 0
-170 -151 -185 0
170 151 -185 0
170 -151 185 0
-170 151 185 0
-171 -23 -186 0
171 186 0
23 186 0
-171 -27 -187 0
171 187 0
27 187 0
-171 -31 -188 0
171 188 0
31 188 0
-171 -35 -189 0
171 189 0
35 189 0
-172 -161 -190 0
172 190 0
161 190 0
-173 -162 -191 0
173 191 0
162 191 0
-174 -163 -192 0
174 192 0
163 192 0
-175 -164 -193 0
175 193 0
164 193 0
-177 -165 -194 0
177 194 0
165 194 0
-179 -166 -195 0
179 195 0
166 195 0
-181 -167 -196 0
181 196 0
167 196 0
-183 -168 -197 0
183 197 0
168 197 0
-185 -169 -198 0
185 198 0
169 198 0
-190 -191 -192 -193 -194 -195 -196 -197 -198 199 0
190 -199 0
191 -199 0
192 -199 0
193 -199 0
194 -199 0
195 -199 0
196 -199 0
197 -199 0
198 -199 0
199 200 0
-199 -200 0
199 71 0
-199 -71 0
-5 -200 -201 0
5 201 0
200 201 0
-200 -9 -202 0
200 202 0
9 202 0
-200 -13 -203 0
200 203 0
13 203 0
-200 -17 -204 0
200 204 0
17 204 0
-200 -21 -205 0
200 205 0
21 205 0
-200 -25 -206 0
200 206 0
25 206 0
-200 -33 -208 0
200 208 0
33 208 0
-200 -36 -209 0
200 209 0
36 209 0
-2 -130 -176 -201 -210 0
2 210 0
130 210 0
176 210 0
201 210 0
-132 -178 -202 -6 -211 0
132 211 0
178 211 0
202 211 0
6 211 0
-134 -180 -203 -10 -212 0
134 212 0
180 212 0
203 212 0
10 212 0
-136 -182 -204 -14 -213 0
136 213 0
182 213 0
204 213 0
14 213 0
-137 -184 -205 -18 -214 0
137 214 0
184 214 0
205 214 0
18 214 0
-138 -186 -206 -22 -215 0
138 215 0
186 215 0
206 215 0
22 215 0
-139 -187 -207 -26 -216 0
139 216 0
187 216 0
207 216 0
26 216 0
-140 -188 -208 -30 -217 0
140 217 0
188 217 0
208 217 0
30 217 0
-141 -189 -209 -34 -218 0
141 218 0
189 218 0
209 218 0
34 218 0
210 219 0
-210 -219 0
-211 -212 -213 -214 -215 -216 -217 -218 220 0
211 -220 0
212 -220 0
213 -220 0
214 -220 0
215 -220 0
216 -220 0
217 -220 0
218 -220 0
213 221 0
-213 -221 0
215 222 0
-215 -222 0
216 223 0
-216 -223 0
217 224 0
-217 -224 0
219 220 72 0
-219 -72 0
-220 -72 0
-212 -221 -225 0
212 225 0
221 225 0
-212 -213 -222 -214 -226 0
212 226 0
213 226 0
222 226 0
214 226 0
-214 -213 -223 -227 0
214 227 0
213 227 0
223 227 0
-212 -213 -216 -224 -228 0
212 228 0
213 228 0
216 228 0
224 228 0
-211 -212 -225 -214 -73 0
211 73 0
212 73 0
225 73 0
214 73 0
-211 -212 -226 -227 -74 0
211 74 0
212 74 0
226 74 0
227 74 0
-211 -225 -226 -228 -75 0
211 75 0
225 75 0
226 75 0
228 75 0
39 229 0
-39 -229 0
40 230 0
-40 -230 0
37 38 0
-37 -38 0
-37 -229 232 0
37 -232 0
229 -232 0
-38 -229 233 0
38 -233 0
229 -233 0
-37 -39 234 0
37 -234 0
39 -234 0
-38 -39 235 0
38 -235 0
39 -235 0
-232 -230 241 0
232 -241 0
230 -241 0
-233 -40 239 0
233 -239 0
40 -239 0
-234 -230 237 0
234 -237 0
230 -237 0
-235 -40 236 0
235 -236 0
40 -236 0
236 237 -238 0
-236 238 0
-237 238 0
238 239 -240 0
-238 240 0
-239 240 0
241 240 -380 0
-241 380 0
-240 380 0
41 242 0
-41 -242 0
42 243 0
-42 -243 0
37 38 0
-37 -38 0
-37 -242 245 0
37 -245 0
242 -245 0
-38 -242 246 0
38 -246 0
242 -246 0
-37 -41 247 0
37 -247 0
41 -247 0
-38 -41 248 0
38 -248 0
41 -248 0
-245 -243 254 0
245 -254 0
243 -254 0
-246 -42 252 0
246 -252 0
42 -252 0
-247 -243 250 0
247 -250 0
243 -250 0
-248 -42 249 0
248 -249 0
42 -249 0
249 250 -251 0
-249 251 0
-250 251 0
251 252 -253 0
-251 253 0
-252 253 0
254 253 -380 0
-254 380 0
-253 380 0
43 255 0
-43 -255 0
44 256 0
-44 -256 0
200 257 0
-200 -257 0
-200 -255 259 0
200 -259 0
255 -259 0
-257 -255 260 0
257 -260 0
255 -260 0
-37 -43 261 0
37 -261 0
43 -261 0
-38 -43 262 0
38 -262 0
43 -262 0
-259 -256 268 0
259 -268 0
256 -268 0
-260 -44 266 0
260 -266 0
44 -266 0
-261 -256 264 0
261 -264 0
256 -264 0
-262 -44 263 0
262 -263 0
44 -263 0
263 264 -265 0
-263 265 0
-264 265 0
265 266 -267 0
-265 267 0
-266 267 0
268 267 -258 0
-268 258 0
-267 258 0
45 269 0
-45 -269 0
46 270 0
-46 -270 0
29 393 0
-29 -393 0
-29 -269 273 0
29 -273 0
269 -273 0
-393 -269 274 0
393 -274 0
269 -274 0
-37 -45 275 0
37 -275 0
45 -275 0
-38 -45 276 0
38 -276 0
45 -276 0
-273 -270 282 0
273 -282 0
270 -282 0
-274 -46 280 0
274 -280 0
46 -280 0
-275 -270 278 0
275 -278 0
270 -278 0
-276 -46 277 0
276 -277 0
46 -277 0
277 278 -279 0
-277 279 0
-278 279 0
279 280 -281 0
-279 281 0
-280 281 0
282 281 -394 0
-282 394 0
-281 394 0
47 283 0
-47 -283 0
48 284 0
-48 -284 0
286 285 0
-286 -285 0
-286 -283 287 0
286 -287 0
283 -287 0
-285 -283 288 0
285 -288 0
283 -288 0
-37 -47 289 0
37 -289 0
47 -289 0
-38 -47 290 0
38 -290 0
47 -290 0
-287 -284 296 0
287 -296 0
284 -296 0
-288 -48 294 0
288 -294 0
48 -294 0
-289 -284 292 0
289 -292 0
284 -292 0
-290 -48 291 0
290 -291 0
48 -291 0
291 292 -293 0
-291 293 0
-292 293 0
293 294 -295 0
-293 295 0
-294 295 0
296 295 -207 0
-296 207 0
-295 207 0
-380 -380 -258 -394 -286 0
380 286 0
380 286 0
258 286 0
394 286 0
49 297 0
-49 -297 0
50 298 0
-50 -298 0
37 38 0
-37 -38 0
-37 -297 300 0
37 -300 0
297 -300 0
-38 -297 301 0
38 -301 0
297 -301 0
-37 -49 302 0
37 -302 0
49 -302 0
-38 -49 303 0
38 -303 0
49 -303 0
-300 -298 309 0
300 -309 0
298 -309 0
-301 -50 307 0
301 -307 0
50 -307 0
-302 -298 305 0
302 -305 0
298 -305 0
-303 -50 304 0
303 -304 0
50 -304 0
304 305 -306 0
-304 306 0
-305 306 0
306 307 -308 0
-306 308 0
-307 308 0
309 308 -380 0
-309 380 0
-308 380 0
51 310 0
-51 -310 0
52 311 0
-52 -311 0
37 38 0
-37 -38 0
-37 -310 313 0
37 -313 0
310 -313 0
-38 -310 314 0
38 -314 0
310 -314 0
-37 -51 315 0
37 -315 0
51 -315 0
-38 -51 316 0
38 -316 0
51 -316 0
-313 -311 322 0
313 -322 0
311 -322 0
-314 -52 320 0
314 -320 0
52 -320 0
-315 -311 318 0
315 -318 0
311 -318 0
-316 -52 317 0
316 -317 0
52 -317 0
317 318 -319 0
-317 319 0
-318 319 0
319 320 -321 0
-319 321 0
-320 321 0
322 321 -380 0
-322 380 0
-321 380 0
53 323 0
-53 -323 0
54 324 0
-54 -324 0
127 325 0
-127 -325 0
-127 -323 327 0
127 -327 0
323 -327 0
-325 -323 328 0
325 -328 0
323 -328 0
-37 -53 329 0
37 -329 0
53 -329 0
-38 -53 330 0
38 -330 0
53 -330 0
-327 -324 336 0
327 -336 0
324 -336 0
-328 -54 334 0
328 -334 0
54 -334 0
-329 -324 332 0
329 -332 0
324 -332 0
-330 -54 331 0
330 -331 0
54 -331 0
331 332 -333 0
-331 333 0
-332 333 0
333 334 -335 0
-333 335 0
-334 335 0
336 335 -326 0
-336 326 0
-335 326 0
55 337 0
-55 -337 0
56 338 0
-56 -338 0
110 339 0
-110 -339 0
-110 -337 341 0
110 -341 0
337 -341 0
-339 -337 342 0
339 -342 0
337 -342 0
-37 -55 343 0
37 -343 0
55 -343 0
-38 -55 344 0
38 -344 0
55 -344 0
-341 -338 350 0
341 -350 0
338 -350 0
-342 -56 348 0
342 -348 0
56 -348 0
-343 -338 346 0
343 -346 0
338 -346 0
-344 -56 345 0
344 -345 0
56 -345 0
345 346 -347 0
-345 347 0
-346 347 0
347 348 -349 0
-347 349 0
-348 349 0
350 349 -340 0
-350 340 0
-349 340 0
57 351 0
-57 -351 0
58 352 0
-58 -352 0
354 353 0
-354 -353 0
-354 -351 355 0
354 -355 0
351 -355 0
-353 -351 356 0
353 -356 0
351 -356 0
-37 -57 357 0
37 -357 0
57 -357 0
-38 -57 358 0
38 -358 0
57 -358 0
-355 -352 364 0
355 -364 0
352 -364 0
-356 -58 362 0
356 -362 0
58 -362 0
-357 -352 360 0
357 -360 0
352 -360 0
-358 -58 359 0
358 -359 0
58 -359 0
359 360 -361 0
-359 361 0
-360 361 0
361 362 -363 0
-361 363 0
-362 363 0
364 363 -154 0
-364 154 0
-363 154 0
-380 -380 -326 -340 -354 0
380 354 0
380 354 0
326 354 0
340 354 0
59 365 0
-59 -365 0
60 366 0
-60 -366 0
37 38 0
-37 -38 0
-37 -365 368 0
37 -368 0
365 -368 0
-38 -365 369 0
38 -369 0
365 -369 0
-37 -59 370 0
37 -370 0
59 -370 0
-38 -59 371 0
38 -371 0
59 -371 0
-368 -366 377 0
368 -377 0
366 -377 0
-369 -60 375 0
369 -375 0
60 -375 0
-370 -366 373 0
370 -373 0
366 -373 0
-371 -60 372 0
371 -372 0
60 -372 0
372 373 -374 0
-372 374 0
-373 374 0
374 375 -376 0
-374 376 0
-375 376 0
377 376 -380 0
-377 380 0
-376 380 0
61 378 0
-61 -378 0
62 379 0
-62 -379 0
37 38 0
-37 -38 0
-37 -378 381 0
37 -381 0
378 -381 0
-38 -378 382 0
38 -382 0
378 -382 0
-37 -61 383 0
37 -383 0
61 -383 0
-38 -61 384 0
38 -384 0
61 -384 0
-381 -379 390 0
381 -390 0
379 -390 0
-382 -62 388 0
382 -388 0
62 -388 0
-383 -379 386 0
383 -386 0
379 -386 0
-384 -62 385 0
384 -385 0
62 -385 0
385 386 -387 0
-385 387 0
-386 387 0
387 388 -389 0
-387 389 0
-388 389 0
390 389 -380 0
-390 380 0
-389 380 0
63 391 0
-63 -391 0
64 392 0
-64 -392 0
29 393 0
-29 -393 0
-29 -391 395 0
29 -395 0
391 -395 0
-393 -391 396 0
393 -396 0
391 -396 0
-37 -63 397 0
37 -397 0
63 -397 0
-38 -63 398 0
38 -398 0
63 -398 0
-395 -392 404 0
395 -404 0
392 -404 0
-396 -64 402 0
396 -402 0
64 -402 0
-397 -392 400 0
397 -400 0
392 -400 0
-398 -64 399 0
398 -399 0
64 -399 0
399 400 -401 0
-399 401 0
-400 401 0
401 402 -403 0
-401 403 0
-402 403 0
404 403 -394 0
-404 394 0
-403 394 0
65 405 0
-65 -405 0
66 406 0
-66 -406 0
89 407 0
-89 -407 0
-89 -405 409 0
89 -409 0
405 -409 0
-407 -405 410 0
407 -410 0
405 -410 0
-37 -65 411 0
37 -411 0
65 -411 0
-38 -65 412 0
38 -412 0
65 -412 0
-409 -406 418 0
409 -418 0
406 -418 0
-410 -66 416 0
410 -416 0
66 -416 0
-411 -406 414 0
411 -414 0
406 -414 0
-412 -66 413 0
412 -413 0
66 -413 0
413 414 -415 0
-413 415 0
-414 415 0
415 416 -417 0
-415 417 0
-416 417 0
418 417 -408 0
-418 408 0
-417 408 0
67 419 0
-67 -419 0
68 420 0
-68 -420 0
422 421 0
-422 -421 0
-422 -419 423 0
422 -423 0
419 -423 0
-421 -419 424 0
421 -424 0
419 -424 0
-37 -67 425 0
37 -425 0
67 -425 0
-38 -67 426 0
38 -426 0
67 -426 0
-423 -420 432 0
423 -432 0
420 -432 0
-424 -68 430 0
424 -430 0
68 -430 0
-425 -420 428 0
425 -428 0
420 -428 0
-426 -68 427 0
426 -427 0
68 -427 0
427 428 -429 0
-427 429 0
-428 429 0
429 430 -431 0
-429 431 0
-430 431 0
432 431 -116 0
-432 116 0
-431 116 0
-380 -380 -394 -408 -422 0
380 422 0
380 422 0
394 422 0
408 422 0
c The second circuit:
433 508 0
-433 -508 0
434 509 0
-434 -509 0
436 510 0
-436 -510 0
438 511 0
-438 -511 0
440 512 0
-440 -512 0
442 513 0
-442 -513 0
444 514 0
-444 -514 0
446 515 0
-446 -515 0
448 516 0
-448 -516 0
450 517 0
-450 -517 0
452 518 0
-452 -518 0
454 519 0
-454 -519 0
456 520 0
-456 -520 0
458 521 0
-458 -521 0
460 522 0
-460 -522 0
462 523 0
-462 -523 0
464 524 0
-464 -524 0
466 525 0
-466 -525 0
-508 -434 -526 0
508 526 0
434 526 0
435 509 527 0
-435 -527 0
-509 -527 0
437 509 528 0
-437 -528 0
-509 -528 0
-510 -438 -529 0
510 529 0
438 529 0
-512 -442 -530 0
512 530 0
442 530 0
-514 -446 -531 0
514 531 0
446 531 0
-516 -450 -532 0
516 532 0
450 532 0
-518 -454 -533 0
518 533 0
454 533 0
-520 -458 -534 0
520 534 0
458 534 0
-522 -462 -535 0
522 535 0
462 535 0
-524 -466 -536 0
524 536 0
466 536 0
439 511 537 0
-439 -537 0
-511 -537 0
441 511 538 0
-441 -538 0
-511 -538 0
443 513 539 0
-443 -539 0
-513 -539 0
445 513 540 0
-445 -540 0
-513 -540 0
447 515 541 0
-447 -541 0
-515 -541 0
449 515 542 0
-449 -542 0
-515 -542 0
451 517 543 0
-451 -543 0
-517 -543 0
453 517 544 0
-453 -544 0
-517 -544 0
455 519 545 0
-455 -545 0
-519 -545 0
457 519 546 0
-457 -546 0
-519 -546 0
459 521 547 0
-459 -547 0
-521 -547 0
463 523 549 0
-463 -549 0
-523 -549 0
465 523 550 0
-465 -550 0
-523 -550 0
467 525 551 0
-467 -551 0
-525 -551 0
468 525 552 0
-468 -552 0
-525 -552 0
-526 -529 -530 -531 -532 -533 -534 -535 -536 553 0
526 -553 0
529 -553 0
530 -553 0
531 -553 0
532 -553 0
533 -553 0
534 -553 0
535 -553 0
536 -553 0
553 554 0
-553 -554 0
553 555 0
-553 -555 0
553 501 0
-553 -501 0
-554 -526 -556 0
554 526 -556 0
554 -526 556 0
-554 526 556 0
-554 -529 -557 0
554 529 -557 0
554 -529 557 0
-554 529 557 0
-554 -530 -558 0
554 530 -558 0
554 -530 558 0
-554 530 558 0
-554 -531 -559 0
554 531 -559 0
554 -531 559 0
-554 531 559 0
-554 -532 -560 0
554 532 -560 0
554 -532 560 0
-554 532 560 0
-554 -533 -561 0
554 533 -561 0
554 -533 561 0
-554 533 561 0
-433 -555 -562 0
433 562 0
555 562 0
-554 -534 -563 0
554 534 -563 0
554 -534 563 0
-554 534 563 0
-555 -436 -564 0
555 564 0
436 564 0
-554 -535 -565 0
554 535 -565 0
554 -535 565 0
-554 535 565 0
-555 -440 -566 0
555 566 0
440 566 0
-554 -536 -567 0
554 536 -567 0
554 -536 567 0
-554 536 567 0
-555 -444 -568 0
555 568 0
444 568 0
-555 -448 -569 0
555 569 0
448 569 0
-555 -452 -570 0
555 570 0
452 570 0
-555 -456 -571 0
555 571 0
456 571 0
-555 -460 -572 0
555 572 0
460 572 0
-555 -464 -573 0
555 573 0
464 573 0
-556 -527 -574 0
556 574 0
527 574 0
-556 -528 -575 0
556 575 0
528 575 0
-557 -537 -576 0
557 576 0
537 576 0
-558 -539 -577 0
558 577 0
539 577 0
-559 -541 -578 0
559 578 0
541 578 0
-560 -543 -579 0
560 579 0
543 579 0
-561 -545 -580 0
561 580 0
545 580 0
-563 -547 -581 0
563 581 0
547 581 0
-565 -549 -582 0
565 582 0
549 582 0
-567 -551 -583 0
567 583 0
551 583 0
-557 -538 -584 0
557 584 0
538 584 0
-558 -540 -585 0
558 585 0
540 585 0
-560 -544 -587 0
560 587 0
544 587 0
-561 -546 -588 0
561 588 0
546 588 0
-563 -548 -589 0
563 589 0
548 589 0
-565 -550 -590 0
565 590 0
550 590 0
-567 -552 -591 0
567 591 0
552 591 0
-574 -576 -577 -578 -579 -580 -581 -582 -583 592 0
574 -592 0
576 -592 0
577 -592 0
578 -592 0
579 -592 0
580 -592 0
581 -592 0
582 -592 0
583 -592 0
575 593 0
-575 -593 0
584 594 0
-584 -594 0
585 595 0
-585 -595 0
586 596 0
-586 -596 0
587 597 0
-587 -597 0
588 598 0
-588 -598 0
589 599 0
-589 -599 0
590 600 0
-590 -600 0
591 601 0
-591 -601 0
592 602 0
-592 -602 0
592 603 0
-592 -603 0
592 502 0
-592 -502 0
-602 -574 -604 0
602 574 -604 0
602 -574 604 0
-602 574 604 0
-602 -576 -605 0
602 576 -605 0
602 -576 605 0
-602 576 605 0
-602 -577 -606 0
602 577 -606 0
602 -577 606 0
-602 577 606 0
-602 -578 -607 0
602 578 -607 0
602 -578 607 0
-602 578 607 0
-435 -603 -608 0
435 608 0
603 608 0
-602 -579 -609 0
602 579 -609 0
602 -579 609 0
-602 579 609 0
-603 -439 -610 0
603 610 0
439 610 0
-602 -580 -611 0
602 580 -611 0
602 -580 611 0
-602 580 611 0
-603 -443 -612 0
603 612 0
443 612 0
-602 -581 -613 0
602 581 -613 0
602 -581 613 0
-602 581 613 0
-603 -447 -614 0
603 614 0
447 614 0
-602 -582 -615 0
602 582 -615 0
602 -582 615 0
-602 582 615 0
-603 -451 -616 0
603 616 0
451 616 0
-602 -583 -617 0
602 583 -617 0
602 -583 617 0
-602 583 617 0
-603 -455 -618 0
603 618 0
455 618 0
-603 -459 -619 0
603 619 0
459 619 0
-603 -463 -620 0
603 620 0
463 620 0
-603 -467 -621 0
603 621 0
467 621 0
-604 -593 -622 0
604 622 0
593 622 0
-605 -594 -623 0
605 623 0
594 623 0
-606 -595 -624 0
606 624 0
595 624 0
-607 -596 -625 0
607 625 0
596 625 0
-609 -597 -626 0
609 626 0
597 626 0
-611 -598 -627 0
611 627 0
598 627 0
-613 -599 -628 0
613 628 0
599 628 0
-615 -600 -629 0
615 629 0
600 629 0
-617 -601 -630 0
617 630 0
601 630 0
-622 -623 -624 -625 -626 -627 -628 -629 -630 631 0
622 -631 0
623 -631 0
624 -631 0
625 -631 0
626 -631 0
627 -631 0
628 -631 0
629 -631 0
630 -631 0
631 632 0
-631 -632 0
631 503 0
-631 -503 0
-437 -632 -633 0
437 633 0
632 633 0
-632 -441 -634 0
632 634 0
441 634 0
-632 -445 -635 0
632 635 0
445 635 0
-632 -449 -636 0
632 636 0
449 636 0
-632 -453 -637 0
632 637 0
453 637 0
-632 -457 -638 0
632 638 0
457 638 0
-632 -465 -640 0
632 640 0
465 640 0
-632 -468 -641 0
632 641 0
468 641 0
-434 -562 -608 -633 -642 0
434 642 0
562 642 0
608 642 0
633 642 0
-564 -610 -634 -438 -643 0
564 643 0
610 643 0
634 643 0
438 643 0
-566 -612 -635 -442 -644 0
566 644 0
612 644 0
635 644 0
442 644 0
-568 -614 -636 -446 -645 0
568 645 0
614 645 0
636 645 0
446 645 0
-569 -616 -637 -450 -646 0
569 646 0
616 646 0
637 646 0
450 646 0
-570 -618 -638 -454 -647 0
570 647 0
618 647 0
638 647 0
454 647 0
-571 -619 -639 -458 -648 0
571 648 0
619 648 0
639 648 0
458 648 0
-572 -620 -640 -462 -649 0
572 649 0
620 649 0
640 649 0
462 649 0
-573 -621 -641 -466 -650 0
573 650 0
621 650 0
641 650 0
466 650 0
642 651 0
-642 -651 0
-643 -644 -645 -646 -647 -648 -649 -650 652 0
643 -652 0
644 -652 0
645 -652 0
646 -652 0
647 -652 0
648 -652 0
649 -652 0
650 -652 0
645 653 0
-645 -653 0
647 654 0
-647 -654 0
648 655 0
-648 -655 0
649 656 0
-649 -656 0
651 652 504 0
-651 -504 0
-652 -504 0
-644 -653 -657 0
644 657 0
653 657 0
-644 -645 -654 -646 -658 0
644 658 0
645 658 0
654 658 0
646 658 0
-646 -645 -655 -659 0
646 659 0
645 659 0
655 659 0
-644 -645 -648 -656 -660 0
644 660 0
645 660 0
648 660 0
656 660 0
-643 -644 -657 -646 -505 0
643 505 0
644 505 0
657 505 0
646 505 0
-643 -644 -658 -659 -506 0
643 506 0
644 506 0
658 506 0
659 506 0
-643 -657 -658 -660 -507 0
643 507 0
657 507 0
658 507 0
660 507 0
471 661 0
-471 -661 0
472 662 0
-472 -662 0
469 470 0
-469 -470 0
-469 -661 664 0
469 -664 0
661 -664 0
-470 -661 665 0
470 -665 0
661 -665 0
-469 -471 666 0
469 -666 0
471 -666 0
-470 -471 667 0
470 -667 0
471 -667 0
-664 -662 673 0
664 -673 0
662 -673 0
-665 -472 671 0
665 -671 0
472 -671 0
-666 -662 669 0
666 -669 0
662 -669 0
-667 -472 668 0
667 -668 0
472 -668 0
668 669 -670 0
-668 670 0
-669 670 0
670 671 -672 0
-670 672 0
-671 672 0
673 672 -812 0
-673 812 0
-672 812 0
473 674 0
-473 -674 0
474 675 0
-474 -675 0
469 470 0
-469 -470 0
-469 -674 677 0
469 -677 0
674 -677 0
-470 -674 678 0
470 -678 0
674 -678 0
-469 -473 679 0
469 -679 0
473 -679 0
-470 -473 680 0
470 -680 0
473 -680 0
-677 -675 686 0
677 -686 0
675 -686 0
-678 -474 684 0
678 -684 0
474 -684 0
-679 -675 682 0
679 -682 0
675 -682 0
-680 -474 681 0
680 -681 0
474 -681 0
681 682 -683 0
-681 683 0
-682 683 0
683 684 -685 0
-683 685 0
-684 685 0
686 685 -812 0
-686 812 0
-685 812 0
475 687 0
-475 -687 0
476 688 0
-476 -688 0
632 689 0
-632 -689 0
-632 -687 691 0
632 -691 0
687 -691 0
-689 -687 692 0
689 -692 0
687 -692 0
-469 -475 693 0
469 -693 0
475 -693 0
-470 -475 694 0
470 -694 0
475 -694 0
-691 -688 700 0
691 -700 0
688 -700 0
-692 -476 698 0
692 -698 0
476 -698 0
-693 -688 696 0
693 -696 0
688 -696 0
-694 -476 695 0
694 -695 0
476 -695 0
695 696 -697 0
-695 697 0
-696 697 0
697 698 -699 0
-697 699 0
-698 699 0
700 699 -690 0
-700 690 0
-699 690 0
477 701 0
-477 -701 0
478 702 0
-478 -702 0
461 825 0
-461 -825 0
-461 -701 705 0
461 -705 0
701 -705 0
-825 -701 706 0
825 -706 0
701 -706 0
-469 -477 707 0
469 -707 0
477 -707 0
-470 -477 708 0
470 -708 0
477 -708 0
-705 -702 714 0
705 -714 0
702 -714 0
-706 -478 712 0
706 -712 0
478 -712 0
-707 -702 710 0
707 -710 0
702 -710 0
-708 -478 709 0
708 -709 0
478 -709 0
709 710 -711 0
-709 711 0
-710 711 0
711 712 -713 0
-711 713 0
-712 713 0
714 713 -826 0
-714 826 0
-713 826 0
479 715 0
-479 -715 0
480 716 0
-480 -716 0
718 717 0
-718 -717 0
-718 -715 719 0
718 -719 0
715 -719 0
-717 -715 720 0
717 -720 0
715 -720 0
-469 -479 721 0
469 -721 0
479 -721 0
-470 -479 722 0
470 -722 0
479 -722 0
-719 -716 728 0
719 -728 0
716 -728 0
-720 -480 726 0
720 -726 0
480 -726 0
-721 -716 724 0
721 -724 0
716 -724 0
-722 -480 723 0
722 -723 0
480 -723 0
723 724 -725 0
-723 725 0
-724 725 0
725 726 -727 0
-725 727 0
-726 727 0
728 727 -639 0
-728 639 0
-727 639 0
-812 -812 -690 -826 -718 0
812 718 0
812 718 0
690 718 0
826 718 0
481 729 0
-481 -729 0
482 730 0
-482 -730 0
469 470 0
-469 -470 0
-469 -729 732 0
469 -732 0
729 -732 0
-470 -729 733 0
470 -733 0
729 -733 0
-469 -481 734 0
469 -734 0
481 -734 0
-470 -481 735 0
470 -735 0
481 -735 0
-732 -730 741 0
732 -741 0
730 -741 0
-733 -482 739 0
733 -739 0
482 -739 0
-734 -730 737 0
734 -737 0
730 -737 0
-735 -482 736 0
735 -736 0
482 -736 0
736 737 -738 0
-736 738 0
-737 738 0
738 739 -740 0
-738 740 0
-739 740 0
741 740 -812 0
-741 812 0
-740 812 0
483 742 0
-483 -742 0
484 743 0
-484 -743 0
469 470 0
-469 -470 0
-469 -742 745 0
469 -745 0
742 -745 0
-470 -742 746 0
470 -746 0
742 -746 0
-469 -483 747 0
469 -747 0
483 -747 0
-470 -483 748 0
470 -748 0
483 -748 0
-745 -743 754 0
745 -754 0
743 -754 0
-746 -484 752 0
746 -752 0
484 -752 0
-747 -743 750 0
747 -750 0
743 -750 0
-748 -484 749 0
748 -749 0
484 -749 0
749 750 -751 0
-749 751 0
-750 751 0
751 752 -753 0
-751 753 0
-752 753 0
754 753 -812 0
-754 812 0
-753 812 0
485 755 0
-485 -755 0
486 756 0
-486 -756 0
559 757 0
-559 -757 0
-559 -755 759 0
559 -759 0
755 -759 0
-757 -755 760 0
757 -760 0
755 -760 0
-469 -485 761 0
469 -761 0
485 -761 0
-470 -485 762 0
470 -762 0
485 -762 0
-759 -756 768 0
759 -768 0
756 -768 0
-760 -486 766 0
760 -766 0
486 -766 0
-761 -756 764 0
761 -764 0
756 -764 0
-762 -486 763 0
762 -763 0
486 -763 0
763 764 -765 0
-763 765 0
-764 765 0
765 766 -767 0
-765 767 0
-766 767 0
768 767 -758 0
-768 758 0
-767 758 0
487 769 0
-487 -769 0
488 770 0
-488 -770 0
542 771 0
-542 -771 0
-542 -769 773 0
542 -773 0
769 -773 0
-771 -769 774 0
771 -774 0
769 -774 0
-469 -487 775 0
469 -775 0
487 -775 0
-470 -487 776 0
470 -776 0
487 -776 0
-773 -770 782 0
773 -782 0
770 -782 0
-774 -488 780 0
774 -780 0
488 -780 0
-775 -770 778 0
775 -778 0
770 -778 0
-776 -488 777 0
776 -777 0
488 -777 0
777 778 -779 0
-777 779 0
-778 779 0
779 780 -781 0
-779 781 0
-780 781 0
782 781 -772 0
-782 772 0
-781 772 0
489 783 0
-489 -783 0
490 784 0
-490 -784 0
786 785 0
-786 -785 0
-786 -783 787 0
786 -787 0
783 -787 0
-785 -783 788 0
785 -788 0
783 -788 0
-469 -489 789 0
469 -789 0
489 -789 0
-470 -489 790 0
470 -790 0
489 -790 0
-787 -784 796 0
787 -796 0
784 -796 0
-788 -490 794 0
788 -794 0
490 -794 0
-789 -784 792 0
789 -792 0
784 -792 0
-790 -490 791 0
790 -791 0
490 -791 0
791 792 -793 0
-791 793 0
-792 793 0
793 794 -795 0
-793 795 0
-794 795 0
796 795 -586 0
-796 586 0
-795 586 0
-812 -812 -758 -772 -786 0
812 786 0
812 786 0
758 786 0
772 786 0
491 797 0
-491 -797 0
492 798 0
-492 -798 0
469 470 0
-469 -470 0
-469 -797 800 0
469 -800 0
797 -800 0
-470 -797 801 0
470 -801 0
797 -801 0
-469 -491 802 0
469 -802 0
491 -802 0
-470 -491 803 0
470 -803 0
491 -803 0
-800 -798 809 0
800 -809 0
798 -809 0
-801 -492 807 0
801 -807 0
492 -807 0
-802 -798 805 0
802 -805 0
798 -805 0
-803 -492 804 0
803 -804 0
492 -804 0
804 805 -806 0
-804 806 0
-805 806 0
806 807 -808 0
-806 808 0
-807 808 0
809 808 -812 0
-809 812 0
-808 812 0
493 810 0
-493 -810 0
494 811 0
-494 -811 0
469 470 0
-469 -470 0
-469 -810 813 0
469 -813 0
810 -813 0
-470 -810 814 0
470 -814 0
810 -814 0
-469 -493 815 0
469 -815 0
493 -815 0
-470 -493 816 0
470 -816 0
493 -816 0
-813 -811 822 0
813 -822 0
811 -822 0
-814 -494 820 0
814 -820 0
494 -820 0
-815 -811 818 0
815 -818 0
811 -818 0
-816 -494 817 0
816 -817 0
494 -817 0
817 818 -819 0
-817 819 0
-818 819 0
819 820 -821 0
-819 821 0
-820 821 0
822 821 -812 0
-822 812 0
-821 812 0
495 823 0
-495 -823 0
496 824 0
-496 -824 0
461 825 0
-461 -825 0
-461 -823 827 0
461 -827 0
823 -827 0
-825 -823 828 0
825 -828 0
823 -828 0
-469 -495 829 0
469 -829 0
495 -829 0
-470 -495 830 0
470 -830 0
495 -830 0
-827 -824 836 0
827 -836 0
824 -836 0
-828 -496 834 0
828 -834 0
496 -834 0
-829 -824 832 0
829 -832 0
824 -832 0
-830 -496 831 0
830 -831 0
496 -831 0
831 832 -833 0
-831 833 0
-832 833 0
833 834 -835 0
-833 835 0
-834 835 0
836 835 -826 0
-836 826 0
-835 826 0
497 837 0
-497 -837 0
498 838 0
-498 -838 0
521 839 0
-521 -839 0
-521 -837 841 0
521 -841 0
837 -841 0
-839 -837 842 0
839 -842 0
837 -842 0
-469 -497 843 0
469 -843 0
497 -843 0
-470 -497 844 0
470 -844 0
497 -844 0
-841 -838 850 0
841 -850 0
838 -850 0
-842 -498 848 0
842 -848 0
498 -848 0
-843 -838 846 0
843 -846 0
838 -846 0
-844 -498 845 0
844 -845 0
498 -845 0
845 846 -847 0
-845 847 0
-846 847 0
847 848 -849 0
-847 849 0
-848 849 0
850 849 -840 0
-850 840 0
-849 840 0
499 851 0
-499 -851 0
500 852 0
-500 -852 0
854 853 0
-854 -853 0
-854 -851 855 0
854 -855 0
851 -855 0
-853 -851 856 0
853 -856 0
851 -856 0
-469 -499 857 0
469 -857 0
499 -857 0
-470 -499 858 0
470 -858 0
499 -858 0
-855 -852 864 0
855 -864 0
852 -864 0
-856 -500 862 0
856 -862 0
500 -862 0
-857 -852 860 0
857 -860 0
852 -860 0
-858 -500 859 0
858 -859 0
500 -859 0
859 860 -861 0
-859 861 0
-860 861 0
861 862 -863 0
-861 863 0
-862 863 0
864 863 -548 0
-864 548 0
-863 548 0
-812 -812 -826 -840 -854 0
812 854 0
812 854 0
826 854 0
840 854 0
37 0
-38 0
c Force PIs of 2 ckts to be the same:
1 -433 0
-1 433 0
2 -434 0
-2 434 0
3 -435 0
-3 435 0
4 -436 0
-4 436 0
5 -437 0
-5 437 0
6 -438 0
-6 438 0
7 -439 0
-7 439 0
8 -440 0
-8 440 0
9 -441 0
-9 441 0
10 -442 0
-10 442 0
11 -443 0
-11 443 0
12 -444 0
-12 444 0
13 -445 0
-13 445 0
14 -446 0
-14 446 0
15 -447 0
-15 447 0
16 -448 0
-16 448 0
17 -449 0
-17 449 0
18 -450 0
-18 450 0
19 -451 0
-19 451 0
20 -452 0
-20 452 0
21 -453 0
-21 453 0
22 -454 0
-22 454 0
23 -455 0
-23 455 0
24 -456 0
-24 456 0
25 -457 0
-25 457 0
26 -458 0
-26 458 0
27 -459 0
-27 459 0
28 -460 0
-28 460 0
29 -461 0
-29 461 0
30 -462 0
-30 462 0
31 -463 0
-31 463 0
32 -464 0
-32 464 0
33 -465 0
-33 465 0
34 -466 0
-34 466 0
35 -467 0
-35 467 0
36 -468 0
-36 468 0
37 -469 0
-37 469 0
38 -470 0
-38 470 0
c XOR outputs of 2 ckts:
-69 -501 -865 0
69 501 -865 0
69 -501 865 0
-69 501 865 0
-70 -502 -866 0
70 502 -866 0
70 -502 866 0
-70 502 866 0
-71 -503 -867 0
71 503 -867 0
71 -503 867 0
-71 503 867 0
-72 -504 -868 0
72 504 -868 0
72 -504 868 0
-72 504 868 0
-73 -505 -869 0
73 505 -869 0
73 -505 869 0
-73 505 869 0
-74 -506 -870 0
74 506 -870 0
74 -506 870 0
-74 506 870 0
-75 -507 -871 0
75 507 -871 0
75 -507 871 0
-75 507 871 0
c The last OR gate of the miter:
865 866 867 868 869 870 871 -872 0
-865 872 0
-866 872 0
-867 872 0
-868 872 0
-869 872 0
-870 872 0
-871 872 0
872 0
